10J3M/DAT/10J3MNLL-16.dat
10 3
27.3885 27.3885
33.3805 33.3805
25.3448 25.3448
17.9724 17.9724
19.7015 19.7015
22.9946 22.9946
20.2925 20.2925
21.1838 21.1838
36.809 36.809
24.3719 24.3719
83.1465