10J3M/SOL/10J3MNLL-16.sol
solution status: optimal solution found
objective value:                              83.1465
x#1#2                                               1 	(obj:0)
x#2#1                               0.312613651682869 	(obj:0)
x#2#2                               0.472251763754288 	(obj:0)
x#2#3                               0.215134584562844 	(obj:0)
x#3#1                                               1 	(obj:0)
x#4#3                                               1 	(obj:0)
x#5#2                                               1 	(obj:0)
x#6#1                                               1 	(obj:0)
x#7#2                                               1 	(obj:0)
x#8#3                                               1 	(obj:0)
x#9#3                                               1 	(obj:0)
x#10#1                                              1 	(obj:0)
z                                             83.1465 	(obj:1)
